rectOffsets = 
    [|0,0,3,3|0,0,3,3|0,0,3,4|0,0,4,3|0,0,3,6|0,0,6,3|0,0,3,7|0,0,7,3|0,0,4,4|0,0,4,4|0,0,4,6|0,0,6,4|];

shape = array1d(1..12, [{1}, {2}, {3}, {4}, {5}, {6}, {7}, {8}, {9}, {10},
    {11}, {12}]);

validshapes = array1d(1..6, [{1,2}, {3,4}, {5,6}, {7,8}, {9,10}, {11,12}]);

dx = array1d(1..6, [3, 3, 3, 3, 4, 4]);

dy = array1d(1..6, [3, 4, 6, 7, 4, 6]);

w = 10;

n = 6;

o = 12;

